c Result of efficient AIG-to-CNF conversion using package CNF
p cnf 28 65
1 -22 -26 0
-1 22 0
-1 26 0
2 -23 -26 0
-2 23 0
-2 26 0
3 -25 2 0
-3 25 0
-3 -2 0
4 1 3 0
-4 -1 0
-4 -3 0
5 24 25 0
-5 -24 0
-5 -25 0
6 2 5 0
-6 -2 0
-6 -5 0
7 22 -4 0
-7 -22 0
-7 4 0
8 -22 4 0
-8 22 0
-8 -4 0
9 7 8 0
-9 -7 0
-9 -8 0
10 -6 7 0
-10 6 0
-10 -7 0
11 6 -7 0
-11 -6 0
-11 7 0
12 10 11 0
-12 -10 0
-12 -11 0
13 -6 -12 0
-13 6 0
-13 12 0
14 6 12 0
-14 -6 0
-14 -12 0
15 13 14 0
-15 -13 0
-15 -14 0
16 9 -15 0
-16 -9 0
-16 15 0
17 -9 15 0
-17 9 0
-17 -15 0
18 16 17 0
-18 -16 0
-18 -17 0
19 7 15 0
-19 -7 0
-19 -15 0
20 -7 18 0
-20 7 0
-20 -18 0
21 19 20 0
-21 -19 0
-21 -20 0
27 0
21 0

